p cnf 21 11
e 1 0
a 2 3 4 0
e 5 6 7 0
a 8 9 10 0
e 11 12 0
a 13 14 15 0
e 16 17 0
a 18 0
e 19 20 21 0
-5 -6 -10 0
15 13 -1 21 0
20 -5 -15 -19 2 0
16 -15 4 -12 -1 0
6 -20 11 0
6 -14 0
11 -10 -15 6 20 0
-1 -21 -7 -11 0
2 -13 17 0
17 8 3 -7 -20 0
-19 4 -17 0
